NAME          
ROWS
 N  OBJ
 L  c3
 L  c4
 L  c5
 L  c6
 L  c7
 G  c1
 G  c2
COLUMNS
    ss[1]     c1        1
    ss[1]     OBJ       1000
    ss[2]     c2        1
    ss[2]     OBJ       1000
    s[1]      c3        1
    s[1]      OBJ       -1000
    s[2]      c4        1
    s[2]      OBJ       -1000
    s[3]      c5        1
    s[3]      OBJ       -1000
    s[4]      c6        1
    s[4]      OBJ       -1000
    s[5]      c7        1
    s[5]      OBJ       -1000
    MARKER    'MARKER'                 'INTORG'
    x[1]      c3        943
    x[1]      c4        184
    x[1]      c5        929
    x[1]      c6        97
    x[1]      c7        734
    x[1]      c1        556
    x[1]      c2        413
    x[1]      OBJ       -129
    x[2]      c3        948
    x[2]      c4        613
    x[2]      c5        402
    x[2]      c6        316
    x[2]      c7        608
    x[2]      c1        125
    x[2]      c2        794
    x[2]      OBJ       -563
    x[3]      c3        984
    x[3]      c4        282
    x[3]      c5        218
    x[3]      c6        805
    x[3]      c7        782
    x[3]      c1        736
    x[3]      c2        494
    x[3]      OBJ       -479
    x[4]      c3        859
    x[4]      c4        608
    x[4]      c5        930
    x[4]      c6        788
    x[4]      c7        477
    x[4]      c1        557
    x[4]      c2        821
    x[4]      OBJ       -182
    x[5]      c3        801
    x[5]      c4        85
    x[5]      c5        667
    x[5]      c6        517
    x[5]      c7        393
    x[5]      c1        301
    x[5]      c2        348
    x[5]      OBJ       -176
    x[6]      c3        768
    x[6]      c4        476
    x[6]      c5        848
    x[6]      c6        918
    x[6]      c7        720
    x[6]      c1        6
    x[6]      c2        961
    x[6]      OBJ       -285
    x[7]      c3        229
    x[7]      c4        48
    x[7]      c5        304
    x[7]      c6        716
    x[7]      c7        867
    x[7]      c1        111
    x[7]      c2        63
    x[7]      OBJ       -348
    x[8]      c3        497
    x[8]      c4        604
    x[8]      c5        276
    x[8]      c6        751
    x[8]      c7        993
    x[8]      c1        16
    x[8]      c2        962
    x[8]      OBJ       -526
    x[9]      c3        299
    x[9]      c4        501
    x[9]      c5        572
    x[9]      c6        716
    x[9]      c7        170
    x[9]      c1        704
    x[9]      c2        799
    x[9]      OBJ       30
    x[10]     c3        88
    x[10]     c4        49
    x[10]     c5        693
    x[10]     c6        347
    x[10]     c7        45
    x[10]     c1        952
    x[10]     c2        242
    x[10]     OBJ       81
    x[11]     c3        113
    x[11]     c4        4
    x[11]     c5        739
    x[11]     c6        763
    x[11]     c7        739
    x[11]     c1        408
    x[11]     c2        352
    x[11]     OBJ       -373
    x[12]     c3        685
    x[12]     c4        253
    x[12]     c5        853
    x[12]     c6        613
    x[12]     c7        650
    x[12]     c1        492
    x[12]     c2        337
    x[12]     OBJ       -603
    x[13]     c3        24
    x[13]     c4        227
    x[13]     c5        829
    x[13]     c6        202
    x[13]     c7        452
    x[13]     c1        163
    x[13]     c2        111
    x[13]     OBJ       -556
    x[14]     c3        169
    x[14]     c4        405
    x[14]     c5        963
    x[14]     c6        816
    x[14]     c7        341
    x[14]     c1        938
    x[14]     c2        559
    x[14]     OBJ       3
    x[15]     c3        28
    x[15]     c4        348
    x[15]     c5        659
    x[15]     c6        62
    x[15]     c7        427
    x[15]     c1        315
    x[15]     c2        889
    x[15]     OBJ       -109
    x[16]     c3        112
    x[16]     c4        47
    x[16]     c5        570
    x[16]     c6        304
    x[16]     c7        734
    x[16]     c1        949
    x[16]     c2        595
    x[16]     OBJ       106
    x[17]     c3        906
    x[17]     c4        277
    x[17]     c5        383
    x[17]     c6        145
    x[17]     c7        661
    x[17]     c1        670
    x[17]     c2        914
    x[17]     OBJ       201
    x[18]     c3        639
    x[18]     c4        14
    x[18]     c5        699
    x[18]     c6        850
    x[18]     c7        802
    x[18]     c1        1000
    x[18]     c2        576
    x[18]     OBJ       -248
    x[19]     c3        14
    x[19]     c4        91
    x[19]     c5        919
    x[19]     c6        800
    x[19]     c7        757
    x[19]     c1        457
    x[19]     c2        312
    x[19]     OBJ       -470
    x[20]     c3        287
    x[20]     c4        638
    x[20]     c5        232
    x[20]     c6        729
    x[20]     c7        388
    x[20]     c1        816
    x[20]     c2        323
    x[20]     OBJ       -111
    x[21]     c3        619
    x[21]     c4        931
    x[21]     c5        915
    x[21]     c6        486
    x[21]     c7        760
    x[21]     c1        357
    x[21]     c2        153
    x[21]     OBJ       -944
    x[22]     c3        446
    x[22]     c4        998
    x[22]     c5        353
    x[22]     c6        527
    x[22]     c7        794
    x[22]     c1        495
    x[22]     c2        888
    x[22]     OBJ       -371
    x[23]     c3        956
    x[23]     c4        336
    x[23]     c5        115
    x[23]     c6        425
    x[23]     c7        696
    x[23]     c1        916
    x[23]     c2        287
    x[23]     OBJ       -195
    x[24]     c3        665
    x[24]     c4        523
    x[24]     c5        169
    x[24]     c6        510
    x[24]     c7        879
    x[24]     c1        852
    x[24]     c2        627
    x[24]     OBJ       -261
    x[25]     c3        300
    x[25]     c4        714
    x[25]     c5        52
    x[25]     c6        906
    x[25]     c7        659
    x[25]     c1        614
    x[25]     c2        888
    x[25]     OBJ       67
    x[26]     c3        431
    x[26]     c4        35
    x[26]     c5        481
    x[26]     c6        108
    x[26]     c7        64
    x[26]     c1        161
    x[26]     c2        634
    x[26]     OBJ       46
    x[27]     c3        313
    x[27]     c4        260
    x[27]     c5        858
    x[27]     c6        751
    x[27]     c7        787
    x[27]     c1        60
    x[27]     c2        424
    x[27]     OBJ       -422
    x[28]     c3        257
    x[28]     c4        327
    x[28]     c5        872
    x[28]     c6        888
    x[28]     c7        468
    x[28]     c1        382
    x[28]     c2        365
    x[28]     OBJ       -297
    x[29]     c3        886
    x[29]     c4        877
    x[29]     c5        334
    x[29]     c6        416
    x[29]     c7        161
    x[29]     c1        373
    x[29]     c2        374
    x[29]     OBJ       -180
    x[30]     c3        575
    x[30]     c4        145
    x[30]     c5        47
    x[30]     c6        402
    x[30]     c7        124
    x[30]     c1        570
    x[30]     c2        85
    x[30]     OBJ       -155
    x[31]     c3        948
    x[31]     c4        417
    x[31]     c5        27
    x[31]     c6        942
    x[31]     c7        89
    x[31]     c1        182
    x[31]     c2        650
    x[31]     OBJ       -531
    x[32]     c3        851
    x[32]     c4        803
    x[32]     c5        4
    x[32]     c6        504
    x[32]     c7        42
    x[32]     c1        934
    x[32]     c2        265
    x[32]     OBJ       -152
    x[33]     c3        882
    x[33]     c4        822
    x[33]     c5        87
    x[33]     c6        385
    x[33]     c7        223
    x[33]     c1        129
    x[33]     c2        711
    x[33]     OBJ       -116
    x[34]     c3        182
    x[34]     c4        409
    x[34]     c5        87
    x[34]     c6        351
    x[34]     c7        715
    x[34]     c1        542
    x[34]     c2        204
    x[34]     OBJ       -234
    x[35]     c3        205
    x[35]     c4        34
    x[35]     c5        829
    x[35]     c6        352
    x[35]     c7        227
    x[35]     c1        767
    x[35]     c2        816
    x[35]     OBJ       390
    x[36]     c3        551
    x[36]     c4        875
    x[36]     c5        484
    x[36]     c6        527
    x[36]     c7        259
    x[36]     c1        964
    x[36]     c2        595
    x[36]     OBJ       -113
    x[37]     c3        1
    x[37]     c4        1000
    x[37]     c5        426
    x[37]     c6        369
    x[37]     c7        784
    x[37]     c1        896
    x[37]     c2        111
    x[37]     OBJ       32
    x[38]     c3        956
    x[38]     c4        352
    x[38]     c5        824
    x[38]     c6        502
    x[38]     c7        679
    x[38]     c1        350
    x[38]     c2        707
    x[38]     OBJ       -496
    x[39]     c3        111
    x[39]     c4        951
    x[39]     c5        401
    x[39]     c6        827
    x[39]     c7        360
    x[39]     c1        178
    x[39]     c2        774
    x[39]     OBJ       -516
    x[40]     c3        455
    x[40]     c4        246
    x[40]     c5        14
    x[40]     c6        83
    x[40]     c7        982
    x[40]     c1        557
    x[40]     c2        138
    x[40]     OBJ       -410
    x[41]     c3        186
    x[41]     c4        388
    x[41]     c5        987
    x[41]     c6        95
    x[41]     c7        392
    x[41]     c1        975
    x[41]     c2        687
    x[41]     OBJ       25
    x[42]     c3        76
    x[42]     c4        696
    x[42]     c5        282
    x[42]     c6        230
    x[42]     c7        732
    x[42]     c1        70
    x[42]     c2        131
    x[42]     OBJ       -700
    x[43]     c3        325
    x[43]     c4        413
    x[43]     c5        276
    x[43]     c6        189
    x[43]     c7        677
    x[43]     c1        226
    x[43]     c2        279
    x[43]     OBJ       -161
    x[44]     c3        247
    x[44]     c4        799
    x[44]     c5        663
    x[44]     c6        568
    x[44]     c7        138
    x[44]     c1        356
    x[44]     c2        775
    x[44]     OBJ       15
    x[45]     c3        767
    x[45]     c4        325
    x[45]     c5        582
    x[45]     c6        48
    x[45]     c7        439
    x[45]     c1        404
    x[45]     c2        191
    x[45]     OBJ       -283
    x[46]     c3        382
    x[46]     c4        615
    x[46]     c5        865
    x[46]     c6        139
    x[46]     c7        32
    x[46]     c1        79
    x[46]     c2        217
    x[46]     OBJ       -408
    x[47]     c3        924
    x[47]     c4        335
    x[47]     c5        74
    x[47]     c6        976
    x[47]     c7        685
    x[47]     c1        833
    x[47]     c2        181
    x[47]     OBJ       -407
    x[48]     c3        481
    x[48]     c4        856
    x[48]     c5        658
    x[48]     c6        957
    x[48]     c7        779
    x[48]     c1        616
    x[48]     c2        750
    x[48]     OBJ       -146
    x[49]     c3        262
    x[49]     c4        324
    x[49]     c5        222
    x[49]     c6        312
    x[49]     c7        69
    x[49]     c1        575
    x[49]     c2        890
    x[49]     OBJ       231
    x[50]     c3        869
    x[50]     c4        665
    x[50]     c5        9
    x[50]     c6        359
    x[50]     c7        863
    x[50]     c1        987
    x[50]     c2        776
    x[50]     OBJ       -116
    x[51]     c3        204
    x[51]     c4        431
    x[51]     c5        881
    x[51]     c6        253
    x[51]     c7        359
    x[51]     c1        340
    x[51]     c2        484
    x[51]     OBJ       -331
    x[52]     c3        974
    x[52]     c4        771
    x[52]     c5        65
    x[52]     c6        505
    x[52]     c7        413
    x[52]     c1        794
    x[52]     c2        655
    x[52]     OBJ       47
    x[53]     c3        952
    x[53]     c4        586
    x[53]     c5        718
    x[53]     c6        749
    x[53]     c7        856
    x[53]     c1        321
    x[53]     c2        662
    x[53]     OBJ       -383
    x[54]     c3        509
    x[54]     c4        198
    x[54]     c5        816
    x[54]     c6        174
    x[54]     c7        881
    x[54]     c1        337
    x[54]     c2        662
    x[54]     OBJ       -313
    x[55]     c3        805
    x[55]     c4        683
    x[55]     c5        571
    x[55]     c6        1
    x[55]     c7        426
    x[55]     c1        580
    x[55]     c2        995
    x[55]     OBJ       234
    x[56]     c3        965
    x[56]     c4        985
    x[56]     c5        757
    x[56]     c6        65
    x[56]     c7        745
    x[56]     c1        920
    x[56]     c2        248
    x[56]     OBJ       -345
    x[57]     c3        284
    x[57]     c4        681
    x[57]     c5        281
    x[57]     c6        604
    x[57]     c7        286
    x[57]     c1        425
    x[57]     c2        718
    x[57]     OBJ       -245
    x[58]     c3        978
    x[58]     c4        523
    x[58]     c5        697
    x[58]     c6        755
    x[58]     c7        221
    x[58]     c1        170
    x[58]     c2        321
    x[58]     OBJ       -611
    x[59]     c3        643
    x[59]     c4        639
    x[59]     c5        369
    x[59]     c6        467
    x[59]     c7        146
    x[59]     c1        955
    x[59]     c2        533
    x[59]     OBJ       224
    x[60]     c3        851
    x[60]     c4        318
    x[60]     c5        709
    x[60]     c6        707
    x[60]     c7        770
    x[60]     c1        581
    x[60]     c2        391
    x[60]     OBJ       -340
    x[61]     c3        849
    x[61]     c4        873
    x[61]     c5        971
    x[61]     c6        472
    x[61]     c7        726
    x[61]     c1        739
    x[61]     c2        81
    x[61]     OBJ       -856
    x[62]     c3        329
    x[62]     c4        697
    x[62]     c5        78
    x[62]     c6        222
    x[62]     c7        554
    x[62]     c1        622
    x[62]     c2        253
    x[62]     OBJ       1
    x[63]     c3        282
    x[63]     c4        854
    x[63]     c5        327
    x[63]     c6        25
    x[63]     c7        951
    x[63]     c1        473
    x[63]     c2        879
    x[63]     OBJ       -241
    x[64]     c3        510
    x[64]     c4        267
    x[64]     c5        576
    x[64]     c6        943
    x[64]     c7        942
    x[64]     c1        789
    x[64]     c2        540
    x[64]     OBJ       -351
    x[65]     c3        901
    x[65]     c4        340
    x[65]     c5        467
    x[65]     c6        582
    x[65]     c7        517
    x[65]     c1        946
    x[65]     c2        959
    x[65]     OBJ       96
    x[66]     c3        855
    x[66]     c4        280
    x[66]     c5        995
    x[66]     c6        571
    x[66]     c7        842
    x[66]     c1        499
    x[66]     c2        118
    x[66]     OBJ       -785
    x[67]     c3        521
    x[67]     c4        632
    x[67]     c5        756
    x[67]     c6        45
    x[67]     c7        89
    x[67]     c1        666
    x[67]     c2        989
    x[67]     OBJ       49
    x[68]     c3        577
    x[68]     c4        977
    x[68]     c5        51
    x[68]     c6        474
    x[68]     c7        84
    x[68]     c1        546
    x[68]     c2        781
    x[68]     OBJ       32
    x[69]     c3        881
    x[69]     c4        593
    x[69]     c5        279
    x[69]     c6        154
    x[69]     c7        441
    x[69]     c1        630
    x[69]     c2        678
    x[69]     OBJ       126
    x[70]     c3        291
    x[70]     c4        786
    x[70]     c5        618
    x[70]     c6        833
    x[70]     c7        868
    x[70]     c1        997
    x[70]     c2        787
    x[70]     OBJ       36
    x[71]     c3        598
    x[71]     c4        410
    x[71]     c5        358
    x[71]     c6        603
    x[71]     c7        510
    x[71]     c1        462
    x[71]     c2        424
    x[71]     OBJ       -549
    x[72]     c3        606
    x[72]     c4        526
    x[72]     c5        337
    x[72]     c6        538
    x[72]     c7        442
    x[72]     c1        750
    x[72]     c2        721
    x[72]     OBJ       212
    x[73]     c3        800
    x[73]     c4        65
    x[73]     c5        54
    x[73]     c6        399
    x[73]     c7        119
    x[73]     c1        841
    x[73]     c2        623
    x[73]     OBJ       272
    x[74]     c3        493
    x[74]     c4        479
    x[74]     c5        490
    x[74]     c6        31
    x[74]     c7        621
    x[74]     c1        795
    x[74]     c2        833
    x[74]     OBJ       77
    x[75]     c3        964
    x[75]     c4        713
    x[75]     c5        127
    x[75]     c6        296
    x[75]     c7        31
    x[75]     c1        2
    x[75]     c2        986
    x[75]     OBJ       -340
    x[76]     c3        951
    x[76]     c4        569
    x[76]     c5        93
    x[76]     c6        762
    x[76]     c7        604
    x[76]     c1        522
    x[76]     c2        141
    x[76]     OBJ       -509
    x[77]     c3        971
    x[77]     c4        154
    x[77]     c5        355
    x[77]     c6        728
    x[77]     c7        717
    x[77]     c1        778
    x[77]     c2        66
    x[77]     OBJ       -499
    x[78]     c3        739
    x[78]     c4        852
    x[78]     c5        295
    x[78]     c6        575
    x[78]     c7        823
    x[78]     c1        42
    x[78]     c2        983
    x[78]     OBJ       -638
    x[79]     c3        759
    x[79]     c4        916
    x[79]     c5        746
    x[79]     c6        169
    x[79]     c7        630
    x[79]     c1        714
    x[79]     c2        449
    x[79]     OBJ       -458
    x[80]     c3        747
    x[80]     c4        661
    x[80]     c5        17
    x[80]     c6        459
    x[80]     c7        884
    x[80]     c1        645
    x[80]     c2        654
    x[80]     OBJ       83
    x[81]     c3        791
    x[81]     c4        230
    x[81]     c5        47
    x[81]     c6        145
    x[81]     c7        926
    x[81]     c1        855
    x[81]     c2        458
    x[81]     OBJ       -90
    x[82]     c3        839
    x[82]     c4        674
    x[82]     c5        416
    x[82]     c6        671
    x[82]     c7        381
    x[82]     c1        396
    x[82]     c2        675
    x[82]     OBJ       -409
    x[83]     c3        203
    x[83]     c4        156
    x[83]     c5        156
    x[83]     c6        625
    x[83]     c7        560
    x[83]     c1        768
    x[83]     c2        515
    x[83]     OBJ       260
    x[84]     c3        681
    x[84]     c4        703
    x[84]     c5        572
    x[84]     c6        574
    x[84]     c7        405
    x[84]     c1        392
    x[84]     c2        718
    x[84]     OBJ       -396
    x[85]     c3        729
    x[85]     c4        739
    x[85]     c5        771
    x[85]     c6        261
    x[85]     c7        441
    x[85]     c1        141
    x[85]     c2        486
    x[85]     OBJ       -511
    x[86]     c3        682
    x[86]     c4        552
    x[86]     c5        11
    x[86]     c6        180
    x[86]     c7        891
    x[86]     c1        544
    x[86]     c2        881
    x[86]     OBJ       7
    x[87]     c3        952
    x[87]     c4        541
    x[87]     c5        426
    x[87]     c6        768
    x[87]     c7        338
    x[87]     c1        847
    x[87]     c2        726
    x[87]     OBJ       -200
    x[88]     c3        622
    x[88]     c4        752
    x[88]     c5        133
    x[88]     c6        827
    x[88]     c7        5
    x[88]     c1        263
    x[88]     c2        386
    x[88]     OBJ       -332
    x[89]     c3        870
    x[89]     c4        225
    x[89]     c5        920
    x[89]     c6        926
    x[89]     c7        960
    x[89]     c1        325
    x[89]     c2        796
    x[89]     OBJ       -683
    x[90]     c3        39
    x[90]     c4        128
    x[90]     c5        712
    x[90]     c6        925
    x[90]     c7        376
    x[90]     c1        227
    x[90]     c2        229
    x[90]     OBJ       -395
    x[91]     c3        86
    x[91]     c4        449
    x[91]     c5        62
    x[91]     c6        75
    x[91]     c7        876
    x[91]     c1        765
    x[91]     c2        398
    x[91]     OBJ       -213
    x[92]     c3        798
    x[92]     c4        786
    x[92]     c5        874
    x[92]     c6        656
    x[92]     c7        77
    x[92]     c1        128
    x[92]     c2        335
    x[92]     OBJ       -663
    x[93]     c3        693
    x[93]     c4        798
    x[93]     c5        878
    x[93]     c6        190
    x[93]     c7        33
    x[93]     c1        10
    x[93]     c2        624
    x[93]     OBJ       -506
    x[94]     c3        39
    x[94]     c4        562
    x[94]     c5        920
    x[94]     c6        976
    x[94]     c7        360
    x[94]     c1        973
    x[94]     c2        283
    x[94]     OBJ       -148
    x[95]     c3        632
    x[95]     c4        97
    x[95]     c5        249
    x[95]     c6        536
    x[95]     c7        520
    x[95]     c1        162
    x[95]     c2        182
    x[95]     OBJ       -640
    x[96]     c3        900
    x[96]     c4        58
    x[96]     c5        511
    x[96]     c6        267
    x[96]     c7        74
    x[96]     c1        743
    x[96]     c2        589
    x[96]     OBJ       -139
    x[97]     c3        729
    x[97]     c4        218
    x[97]     c5        255
    x[97]     c6        993
    x[97]     c7        367
    x[97]     c1        208
    x[97]     c2        153
    x[97]     OBJ       -557
    x[98]     c3        192
    x[98]     c4        706
    x[98]     c5        539
    x[98]     c6        471
    x[98]     c7        636
    x[98]     c1        223
    x[98]     c2        945
    x[98]     OBJ       12
    x[99]     c3        970
    x[99]     c4        363
    x[99]     c5        639
    x[99]     c6        446
    x[99]     c7        954
    x[99]     c1        981
    x[99]     c2        272
    x[99]     OBJ       -207
    x[100]    c3        346
    x[100]    c4        705
    x[100]    c5        567
    x[100]    c6        470
    x[100]    c7        225
    x[100]    c1        143
    x[100]    c2        849
    x[100]    OBJ       -370
RHS
    rhs       c3        42813
    rhs       c4        36845
    rhs       c5        36146
    rhs       c6        37149
    rhs       c7        39151
    rhs       c1        39485
    rhs       c2        40164
RANGES
BOUNDS
 LO bounds    ss[1]     0
 PL bounds    ss[1]
 LO bounds    ss[2]     0
 PL bounds    ss[2]
 MI bounds    s[1]
 UP bounds    s[1]      0
 MI bounds    s[2]
 UP bounds    s[2]      0
 MI bounds    s[3]
 UP bounds    s[3]      0
 MI bounds    s[4]
 UP bounds    s[4]      0
 MI bounds    s[5]
 UP bounds    s[5]      0
 BV bounds    x[1]
 BV bounds    x[2]
 BV bounds    x[3]
 BV bounds    x[4]
 BV bounds    x[5]
 BV bounds    x[6]
 BV bounds    x[7]
 BV bounds    x[8]
 BV bounds    x[9]
 BV bounds    x[10]
 BV bounds    x[11]
 BV bounds    x[12]
 BV bounds    x[13]
 BV bounds    x[14]
 BV bounds    x[15]
 BV bounds    x[16]
 BV bounds    x[17]
 BV bounds    x[18]
 BV bounds    x[19]
 BV bounds    x[20]
 BV bounds    x[21]
 BV bounds    x[22]
 BV bounds    x[23]
 BV bounds    x[24]
 BV bounds    x[25]
 BV bounds    x[26]
 BV bounds    x[27]
 BV bounds    x[28]
 BV bounds    x[29]
 BV bounds    x[30]
 BV bounds    x[31]
 BV bounds    x[32]
 BV bounds    x[33]
 BV bounds    x[34]
 BV bounds    x[35]
 BV bounds    x[36]
 BV bounds    x[37]
 BV bounds    x[38]
 BV bounds    x[39]
 BV bounds    x[40]
 BV bounds    x[41]
 BV bounds    x[42]
 BV bounds    x[43]
 BV bounds    x[44]
 BV bounds    x[45]
 BV bounds    x[46]
 BV bounds    x[47]
 BV bounds    x[48]
 BV bounds    x[49]
 BV bounds    x[50]
 BV bounds    x[51]
 BV bounds    x[52]
 BV bounds    x[53]
 BV bounds    x[54]
 BV bounds    x[55]
 BV bounds    x[56]
 BV bounds    x[57]
 BV bounds    x[58]
 BV bounds    x[59]
 BV bounds    x[60]
 BV bounds    x[61]
 BV bounds    x[62]
 BV bounds    x[63]
 BV bounds    x[64]
 BV bounds    x[65]
 BV bounds    x[66]
 BV bounds    x[67]
 BV bounds    x[68]
 BV bounds    x[69]
 BV bounds    x[70]
 BV bounds    x[71]
 BV bounds    x[72]
 BV bounds    x[73]
 BV bounds    x[74]
 BV bounds    x[75]
 BV bounds    x[76]
 BV bounds    x[77]
 BV bounds    x[78]
 BV bounds    x[79]
 BV bounds    x[80]
 BV bounds    x[81]
 BV bounds    x[82]
 BV bounds    x[83]
 BV bounds    x[84]
 BV bounds    x[85]
 BV bounds    x[86]
 BV bounds    x[87]
 BV bounds    x[88]
 BV bounds    x[89]
 BV bounds    x[90]
 BV bounds    x[91]
 BV bounds    x[92]
 BV bounds    x[93]
 BV bounds    x[94]
 BV bounds    x[95]
 BV bounds    x[96]
 BV bounds    x[97]
 BV bounds    x[98]
 BV bounds    x[99]
 BV bounds    x[100]
ENDATA
